
Gurobi 8.1.1 (win64) logging started 11/24/19 12:28:30

Changed value of parameter LogFile to logs/drand/feas/drand-05-075-2.log
   Prev: gurobi.log  Default: 
Changed value of parameter LogToConsole to 0
   Prev: 1  Min: 0  Max: 1  Default: 1
Changed value of parameter TimeLimit to 3600.0
   Prev: 1e+100  Min: 0.0  Max: 1e+100  Default: 1e+100
Optimize a model with 185 rows, 81 columns and 630 nonzeros
Variable types: 0 continuous, 81 integer (75 binary)
Coefficient statistics:
  Matrix range     [1e+00, 3e+02]
  Objective range  [1e+00, 1e+00]
  Bounds range     [1e+00, 1e+00]
  RHS range        [1e+00, 3e+02]
Presolve time: 0.00s
Presolved: 185 rows, 81 columns, 630 nonzeros
Variable types: 0 continuous, 81 integer (75 binary)

Root relaxation: objective 2.180000e+01, 87 iterations, 0.00 seconds

    Nodes    |    Current Node    |     Objective Bounds      |     Work
 Expl Unexpl |  Obj  Depth IntInf | Incumbent    BestBd   Gap | It/Node Time

     0     0   21.80000    0   48          -   21.80000      -     -    0s
H    0     0                     250.0000000   21.80000  91.3%     -    0s
     0     0   33.04720    0   32  250.00000   33.04720  86.8%     -    0s
H    0     0                     227.0000000   33.04720  85.4%     -    0s
     0     0   39.57181    0   43  227.00000   39.57181  82.6%     -    0s
H    0     0                     213.0000000   39.57181  81.4%     -    0s
     0     0   39.59757    0   42  213.00000   39.59757  81.4%     -    0s
     0     0   39.77728    0   32  213.00000   39.77728  81.3%     -    0s
     0     0   39.77949    0   42  213.00000   39.77949  81.3%     -    0s
H    0     0                     135.0000000   39.77949  70.5%     -    0s
     0     0   40.85895    0   38  135.00000   40.85895  69.7%     -    0s
     0     0   40.99505    0   38  135.00000   40.99505  69.6%     -    0s
     0     0   40.99505    0   39  135.00000   40.99505  69.6%     -    0s
     0     0   41.18075    0   38  135.00000   41.18075  69.5%     -    0s
     0     0   41.21913    0   39  135.00000   41.21913  69.5%     -    0s
     0     0   41.21913    0   39  135.00000   41.21913  69.5%     -    0s
     0     0   41.44248    0   33  135.00000   41.44248  69.3%     -    0s
     0     0   41.81690    0   33  135.00000   41.81690  69.0%     -    0s
     0     0   41.82674    0   33  135.00000   41.82674  69.0%     -    0s
     0     0   42.44580    0   20  135.00000   42.44580  68.6%     -    0s
H    0     0                     124.0000000   42.44580  65.8%     -    0s
     0     0   42.59965    0   36  124.00000   42.59965  65.6%     -    0s
     0     0   42.62736    0   36  124.00000   42.62736  65.6%     -    0s
     0     0   42.62736    0   36  124.00000   42.62736  65.6%     -    0s
     0     0   42.62736    0   36  124.00000   42.62736  65.6%     -    0s
     0     0   42.65644    0   37  124.00000   42.65644  65.6%     -    0s
     0     0   42.65644    0   37  124.00000   42.65644  65.6%     -    0s
     0     0   42.65644    0   36  124.00000   42.65644  65.6%     -    0s
     0     0   42.65644    0   30  124.00000   42.65644  65.6%     -    0s
     0     0   42.65644    0   26  124.00000   42.65644  65.6%     -    0s
     0     0   44.44755    0   22  124.00000   44.44755  64.2%     -    0s
     0     0   44.44755    0   24  124.00000   44.44755  64.2%     -    0s
     0     0   71.00000    0    8  124.00000   71.00000  42.7%     -    0s
     0     0   71.18405    0   14  124.00000   71.18405  42.6%     -    0s
     0     0   73.77501    0   17  124.00000   73.77501  40.5%     -    0s
     0     0   78.26896    0   14  124.00000   78.26896  36.9%     -    0s
     0     0   92.20755    0   11  124.00000   92.20755  25.6%     -    0s
     0     0   92.20755    0   12  124.00000   92.20755  25.6%     -    0s
     0     0   92.40770    0   12  124.00000   92.40770  25.5%     -    0s
     0     0   92.40858    0   16  124.00000   92.40858  25.5%     -    0s
     0     0   93.55372    0   17  124.00000   93.55372  24.6%     -    0s
     0     0   95.19253    0   20  124.00000   95.19253  23.2%     -    0s
     0     0   95.20827    0   20  124.00000   95.20827  23.2%     -    0s
     0     0   95.51008    0   17  124.00000   95.51008  23.0%     -    0s
     0     0   95.65902    0   16  124.00000   95.65902  22.9%     -    0s
     0     0   96.67793    0   15  124.00000   96.67793  22.0%     -    0s
     0     0   96.82960    0   17  124.00000   96.82960  21.9%     -    0s
     0     0   99.10373    0   19  124.00000   99.10373  20.1%     -    0s
     0     0   99.32558    0   20  124.00000   99.32558  19.9%     -    0s
     0     0   99.33307    0   20  124.00000   99.33307  19.9%     -    0s
     0     0  103.66605    0   14  124.00000  103.66605  16.4%     -    0s
     0     0  104.30278    0    9  124.00000  104.30278  15.9%     -    0s
     0     0  104.54258    0   16  124.00000  104.54258  15.7%     -    0s
     0     0  104.67694    0   17  124.00000  104.67694  15.6%     -    0s
     0     0  106.09446    0   10  124.00000  106.09446  14.4%     -    0s
     0     0  106.16263    0   10  124.00000  106.16263  14.4%     -    0s
     0     0  106.60717    0   15  124.00000  106.60717  14.0%     -    0s
     0     0  106.79320    0   17  124.00000  106.79320  13.9%     -    0s
     0     0  106.82334    0   21  124.00000  106.82334  13.9%     -    0s
     0     0  110.18295    0   12  124.00000  110.18295  11.1%     -    0s
     0     0  110.39021    0   14  124.00000  110.39021  11.0%     -    0s
     0     0  110.39021    0   14  124.00000  110.39021  11.0%     -    0s
     0     0  110.53723    0   16  124.00000  110.53723  10.9%     -    0s
     0     0  118.79227    0   11  124.00000  118.79227  4.20%     -    0s

Cutting planes:
  Implied bound: 2
  MIR: 11

Explored 1 nodes (853 simplex iterations) in 0.14 seconds
Thread count was 4 (of 4 available processors)

Solution count 5: 124 135 213 ... 250

Optimal solution found (tolerance 1.00e-04)
Best objective 1.240000000000e+02, best bound 1.240000000000e+02, gap 0.0000%

Gurobi 8.1.1 (win64) logging started 11/24/19 12:28:30

Changed value of parameter LogFile to logs/drand/feas/drand-05-075-2.log
   Prev: gurobi.log  Default: 
Changed value of parameter LogToConsole to 0
   Prev: 1  Min: 0  Max: 1  Default: 1
Changed value of parameter TimeLimit to 3600.0
   Prev: 1e+100  Min: 0.0  Max: 1e+100  Default: 1e+100
Optimize a model with 125 rows, 55 columns and 420 nonzeros
Variable types: 0 continuous, 55 integer (50 binary)
Coefficient statistics:
  Matrix range     [1e+00, 3e+02]
  Objective range  [1e+00, 1e+00]
  Bounds range     [1e+00, 1e+00]
  RHS range        [1e+00, 3e+02]
Presolve time: 0.00s
Presolved: 125 rows, 55 columns, 420 nonzeros
Variable types: 0 continuous, 55 integer (50 binary)

Root relaxation: objective 2.225000e+01, 67 iterations, 0.00 seconds

    Nodes    |    Current Node    |     Objective Bounds      |     Work
 Expl Unexpl |  Obj  Depth IntInf | Incumbent    BestBd   Gap | It/Node Time

     0     0   22.25000    0   46          -   22.25000      -     -    0s
H    0     0                     192.0000000   22.25000  88.4%     -    0s
H    0     0                     187.0000000   22.25000  88.1%     -    0s
     0     0   37.41539    0   28  187.00000   37.41539  80.0%     -    0s
H    0     0                     154.0000000   37.41539  75.7%     -    0s
H    0     0                     134.0000000   37.41539  72.1%     -    0s
     0     0   37.41539    0   28  134.00000   37.41539  72.1%     -    0s
     0     0   42.04310    0   24  134.00000   42.04310  68.6%     -    0s
     0     0   43.48717    0   22  134.00000   43.48717  67.5%     -    0s
     0     0   43.53666    0   23  134.00000   43.53666  67.5%     -    0s
     0     0   45.75546    0   23  134.00000   45.75546  65.9%     -    0s
     0     0   45.75546    0   24  134.00000   45.75546  65.9%     -    0s
     0     0   49.35253    0   24  134.00000   49.35253  63.2%     -    0s
     0     0   49.39499    0   25  134.00000   49.39499  63.1%     -    0s
     0     0   49.39499    0   25  134.00000   49.39499  63.1%     -    0s
     0     0   49.42782    0   24  134.00000   49.42782  63.1%     -    0s
     0     0   49.42782    0   24  134.00000   49.42782  63.1%     -    0s
H    0     0                     123.0000000   49.42782  59.8%     -    0s
     0     2   49.42782    0   19  123.00000   49.42782  59.8%     -    0s

Cutting planes:
  Gomory: 25
  Implied bound: 1
  MIR: 16

Explored 61 nodes (842 simplex iterations) in 0.06 seconds
Thread count was 4 (of 4 available processors)

Solution count 5: 123 134 154 ... 192

Optimal solution found (tolerance 1.00e-04)
Best objective 1.230000000000e+02, best bound 1.230000000000e+02, gap 0.0000%
